(set-info :smt-lib-version 2.6)
(set-logic UFLIA)
(set-info :source |Benchmarks from the paper: "Extending Sledgehammer with SMT Solvers" by Jasmin Blanchette, Sascha Bohme, and Lawrence C. Paulson, CADE 2011.  Translated to SMT2 by Andrew Reynolds and Morgan Deters.|)
(set-info :category "industrial")
(set-info :status unknown)
(declare-sort S1 0)
(declare-sort S2 0)
(declare-sort S3 0)
(declare-sort S4 0)
(declare-sort S5 0)
(declare-sort S6 0)
(declare-sort S7 0)
(declare-sort S8 0)
(declare-sort S9 0)
(declare-sort S10 0)
(declare-sort S11 0)
(declare-sort S12 0)
(declare-sort S13 0)
(declare-sort S14 0)
(declare-sort S15 0)
(declare-sort S16 0)
(declare-sort S17 0)
(declare-fun f1 () S1)
(declare-fun f2 () S1)
(declare-fun f3 (S3 S2) S1)
(declare-fun f4 (S4 S2) S3)
(declare-fun f5 () S4)
(declare-fun f6 (S5 S5) S1)
(declare-fun f7 () S5)
(declare-fun f8 (S6 S5) S5)
(declare-fun f9 (S7) S6)
(declare-fun f10 (S8 S4) S7)
(declare-fun f11 (S9 S10) S8)
(declare-fun f12 (S11 S4) S9)
(declare-fun f13 () S11)
(declare-fun f14 () S4)
(declare-fun f15 () S10)
(declare-fun f16 () S4)
(declare-fun f17 (S10) S4)
(declare-fun f18 (S5 S5) S1)
(declare-fun f19 (S7 S5) S1)
(declare-fun f20 (S13 S7) S14)
(declare-fun f21 (S15 S12) S13)
(declare-fun f22 () S15)
(declare-fun f23 (S16 Int) S14)
(declare-fun f24 () S16)
(declare-fun f25 (S17 S14) Int)
(declare-fun f26 () S17)
(assert (not (= f1 f2)))
(assert (forall ((?v0 S2) (?v1 S2)) (= (= (f3 (f4 f5 ?v0) ?v1) f1) (= ?v0 ?v1))))
(assert (not (= (f6 f7 (f8 (f9 (f10 (f11 (f12 f13 f14) f15) f16)) f7)) f1)))
(assert (= (f6 f7 (f8 (f9 (f10 (f11 (f12 f13 f5) f15) (f17 f15))) f7)) f1))
(assert (= (f18 f7 (f8 (f9 (f10 (f11 (f12 f13 f14) f15) f16)) f7)) f1))
(assert (forall ((?v0 S5)) (= (f6 ?v0 f7) f1)))
(assert (forall ((?v0 S4) (?v1 S10) (?v2 S4) (?v3 S4) (?v4 S10) (?v5 S4)) (= (= (f10 (f11 (f12 f13 ?v0) ?v1) ?v2) (f10 (f11 (f12 f13 ?v3) ?v4) ?v5)) (and (= ?v0 ?v3) (and (= ?v1 ?v4) (= ?v2 ?v5))))))
(assert (forall ((?v0 S5) (?v1 S5)) (=> (= (f6 ?v0 ?v1) f1) (= (f18 ?v0 ?v1) f1))))
(assert (forall ((?v0 S5) (?v1 S5) (?v2 S5)) (=> (= (f6 ?v0 ?v1) f1) (=> (= (f6 ?v2 ?v0) f1) (= (f6 ?v2 ?v1) f1)))))
(assert (forall ((?v0 S5) (?v1 S7) (?v2 S5)) (let ((?v_0 (f9 ?v1))) (=> (= (f6 ?v0 (f8 ?v_0 f7)) f1) (=> (= (f6 ?v0 ?v2) f1) (= (f6 ?v0 (f8 ?v_0 ?v2)) f1))))))
(assert (forall ((?v0 S5) (?v1 S7) (?v2 S5)) (let ((?v_0 (f9 ?v1))) (=> (= (f6 ?v0 (f8 ?v_0 ?v2)) f1) (and (= (f6 ?v0 (f8 ?v_0 f7)) f1) (= (f6 ?v0 ?v2) f1))))))
(assert (forall ((?v0 S5) (?v1 S4) (?v2 S10) (?v3 S4) (?v4 S4)) (let ((?v_0 (f11 (f12 f13 ?v1) ?v2))) (=> (= (f6 ?v0 (f8 (f9 (f10 ?v_0 ?v3)) f7)) f1) (=> (forall ((?v5 S2) (?v6 S2)) (=> (= (f3 (f4 ?v3 ?v5) ?v6) f1) (= (f3 (f4 ?v4 ?v5) ?v6) f1))) (= (f6 ?v0 (f8 (f9 (f10 ?v_0 ?v4)) f7)) f1))))))
(assert (forall ((?v0 S5) (?v1 S4) (?v2 S10) (?v3 S4) (?v4 S4)) (=> (= (f6 ?v0 (f8 (f9 (f10 (f11 (f12 f13 ?v1) ?v2) ?v3)) f7)) f1) (=> (forall ((?v5 S2) (?v6 S2)) (=> (= (f3 (f4 ?v4 ?v5) ?v6) f1) (= (f3 (f4 ?v1 ?v5) ?v6) f1))) (= (f6 ?v0 (f8 (f9 (f10 (f11 (f12 f13 ?v4) ?v2) ?v3)) f7)) f1)))))
(assert (forall ((?v0 S7) (?v1 S7) (?v2 S5)) (=> (= (f19 ?v0 (f8 (f9 ?v1) ?v2)) f1) (=> (=> (= ?v0 ?v1) false) (=> (=> (= (f19 ?v0 ?v2) f1) false) false)))))
(assert (forall ((?v0 S7) (?v1 S5) (?v2 S7)) (=> (=> (not (= (f19 ?v0 ?v1) f1)) (= ?v0 ?v2)) (= (f19 ?v0 (f8 (f9 ?v2) ?v1)) f1))))
(assert (forall ((?v0 S5) (?v1 S4) (?v2 S10) (?v3 S4) (?v4 S4) (?v5 S4)) (=> (= (f6 ?v0 (f8 (f9 (f10 (f11 (f12 f13 ?v1) ?v2) ?v3)) f7)) f1) (=> (forall ((?v6 S2) (?v7 S2)) (=> (= (f3 (f4 ?v4 ?v6) ?v7) f1) (forall ((?v8 S2)) (=> (forall ((?v9 S2)) (=> (= (f3 (f4 ?v1 ?v9) ?v7) f1) (= (f3 (f4 ?v3 ?v9) ?v8) f1))) (= (f3 (f4 ?v5 ?v6) ?v8) f1))))) (= (f6 ?v0 (f8 (f9 (f10 (f11 (f12 f13 ?v4) ?v2) ?v5)) f7)) f1)))))
(assert (forall ((?v0 S7)) (=> (= (f19 ?v0 f7) f1) false)))
(assert (forall ((?v0 S12) (?v1 S4) (?v2 S10) (?v3 S4)) (= (f20 (f21 f22 ?v0) (f10 (f11 (f12 f13 ?v1) ?v2) ?v3)) (f23 f24 0))))
(assert (forall ((?v0 S7) (?v1 S5)) (not (= f7 (f8 (f9 ?v0) ?v1)))))
(assert (forall ((?v0 S14)) (= (f23 f24 (f25 f26 ?v0)) ?v0)))
(assert (forall ((?v0 Int)) (=> (<= 0 ?v0) (= (f25 f26 (f23 f24 ?v0)) ?v0))))
(assert (forall ((?v0 Int)) (=> (< ?v0 0) (= (f25 f26 (f23 f24 ?v0)) 0))))
(check-sat)
(exit)
